(set-logic ALL)
(declare-fun seed0_T_1 () Bool)
(declare-fun seed0_var_0xINPUT_14495 () String)
(assert (and (or (= seed0_T_1 (= "-" seed0_var_0xINPUT_14495)) (not (str.contains (str.++ seed0_var_0xINPUT_14495 "") (str.++ seed0_var_0xINPUT_14495 "KFYzh5gXLIl8v")))) (or seed0_T_1 (not (str.suffixof (str.++ seed0_var_0xINPUT_14495 "ZjWQofIav") (str.++ seed0_var_0xINPUT_14495 "sAE1eFjxrTZlJ"))))))
(check-sat)
(exit)